c random clauses
p cnf 9 32
-9 -8 -7 -6 -2 3 4 5 0
-9 -8 -7 -5 -4 -1 2 3 0
-9 -8 -7 -5 -4 -1 2 6 0
-9 -8 -6 -4 -3 1 2 5 0
-9 -8 -5 -4 2 3 6 7 0
-9 -8 -5 -1 3 4 6 7 0
-9 -8 -4 -3 -2 1 6 7 0
-9 -8 1 2 3 5 6 7 0
-9 -7 -5 -3 1 2 4 8 0
-9 -7 -3 -2 -1 5 6 8 0
-9 -6 -5 -4 -2 -1 3 8 0
-9 -6 -5 -4 -2 -1 7 8 0
-9 -6 -4 -1 3 5 7 8 0
-9 -4 -3 -2 1 5 6 7 0
-8 -7 -6 -5 -3 -1 4 9 0
-8 -7 -5 -4 -3 -1 6 9 0
-8 -7 -5 -4 -1 3 6 9 0
-8 -7 -4 -3 -1 5 6 9 0
-8 -6 -5 -4 -2 -1 7 9 0
-8 -6 -2 -1 3 4 5 9 0
-8 -5 -2 -1 4 6 7 9 0
-8 -3 -2 4 5 6 7 9 0
-8 -2 1 3 4 6 7 9 0
-7 -6 -5 -4 -3 -1 2 8 0
-7 -6 -5 -1 2 3 8 9 0
-7 -6 -4 -1 2 5 8 9 0
-7 -6 1 2 3 5 8 9 0
-7 -4 2 3 5 6 8 9 0
-5 -2 1 3 6 7 8 9 0
-2 -1 3 4 6 7 8 9 0
-1 2 3 4 5 6 8 9 0
1 2 4 5 6 7 8 9 0
